c clasp version 2.1.1
c Reading from p05.cnf
c Solving...
s UNSATISFIABLE

c Models        : 0     
c Time          : 27.037s (Solving: 26.83s 1st Model: 0.00s Unsat: 26.83s)
c CPU Time      : 26.980s
c Choices       : 181111
c Conflicts     : 150029
c Restarts      : 52     (Average: 2885.15 Last: 9446)

c Variables     : 70279  (Eliminated: 21174 Frozen:    0)
c Constraints   : 60315  (Binary: 69.5% Ternary: 27.9% Other:  2.6%)
c Lemmas        : 150028 (Binary:  0.4% Ternary:  0.7% Other: 98.9%)
c   Conflict    : 150028 (Average Length: 54.1) 
c   Loop        : 0      (Average Length: 0.0) 
c   Other       : 0      (Average Length: 0.0)
c   Deleted     : 109645
